c Random generated cnf formula, satisfiable: false
p cnf 10 50
-2 6 -10 0
-7 10 -4 0
9 -5 7 0
7 8 -10 0
5 3 -2 0
-10 6 -2 0
6 2 3 0
-3 -1 -8 0
-2 -6 1 0
9 1 3 0
-7 -2 -9 0
10 6 9 0
-3 -1 9 0
9 -10 8 0
2 -10 9 0
4 9 10 0
-9 8 1 0
-6 10 -1 0
-7 8 2 0
5 -9 -6 0
5 -1 3 0
7 3 4 0
3 -6 10 0
-2 5 4 0
-8 -4 3 0
-2 -4 8 0
3 -4 -5 0
5 3 4 0
7 9 6 0
-9 6 -7 0
-3 -2 -9 0
-9 8 -1 0
9 -10 2 0
7 1 3 0
-5 8 -3 0
-2 5 -3 0
-7 5 -6 0
-4 -3 -6 0
-8 1 -7 0
-5 3 2 0
-10 5 -1 0
-2 -8 -10 0
-8 -7 1 0
-2 4 -5 0
9 4 6 0
-7 8 -3 0
-6 -8 -1 0
1 9 -5 0
-8 -3 -9 0
-9 8 10 0
